p cnf 7230 16
-1520 -1996 -2708 0
1520 -2709 0
2714 2715 0
2004 -2715 0
-2004 -2714 0
2712 2713 0
2002 -2713 0
-2002 -2712 0
2710 2711 0
2000 -2711 0
-2000 -2710 0
2708 2709 0
1996 -2709 0
-1524 -2526 2717 0
2526 -2717 0
1524 -2717 0
